num_processes = 6;
num_nodes = 3;

node_cpu = array1d(1..3,[773, 644, 993]);
node_memory = array1d(1..3,[2020, 815, 1603]);
process_memory = array1d(1..6,[335, 191, 154, 288, 477, 294]);
process_links = array2d(1..6,1..6,[true, false, true, false, false, false, false, true, false, true, false, false, true, false, true, true, true, false, false, true, true, true, true, false, false, false, true, true, true, true, false, false, false, false, true, true]);
topology = array2d(1..3,1..3,[true, false, true, false, true, true, true, true, true]);
process_load = array1d(1..6,[351, 524, 277, 328, 380, 299]);
